 
data_mn2101 
 
_audit_creation_method            SHELXL-97 
_chemical_name_systematic 
; 
 ? 
; 
_chemical_name_common             [121]tetramantane 
_chemical_melting_point           ? 
_chemical_formula_moiety          'C22 H28' 
_chemical_formula_sum 
 'C22 H28' 
_chemical_formula_weight          292.44 
 
loop_ 
 _atom_type_symbol 
 _atom_type_description 
 _atom_type_scat_dispersion_real 
 _atom_type_scat_dispersion_imag 
 _atom_type_scat_source 
 'C'  'C'   0.0033   0.0016 
 'International Tables Vol C Tables 4.2.6.8 and 6.1.1.4' 
 'H'  'H'   0.0000   0.0000 
 'International Tables Vol C Tables 4.2.6.8 and 6.1.1.4' 
 
_symmetry_cell_setting            monoclinic
_symmetry_space_group_name_Hall   '-P 2yn'
_symmetry_space_group_name_H-M    'P 21/n' 
 
loop_ 
 _symmetry_equiv_pos_as_xyz 
 'x, y, z' 
 '-x+1/2, y+1/2, -z+1/2' 
 '-x, -y, -z' 
 'x-1/2, -y-1/2, z-1/2' 
 
_cell_length_a                    7.6445(12) 
_cell_length_b                    7.9632(12) 
_cell_length_c                    12.8008(19) 
_cell_angle_alpha                 90.00 
_cell_angle_beta                  105.018(2) 
_cell_angle_gamma                 90.00 
_cell_volume                      752.6(2) 
_cell_formula_units_Z             2 
_cell_measurement_temperature     90(2) 
_cell_measurement_reflns_used     3967 
_cell_measurement_theta_min       2.8
_cell_measurement_theta_max       28.3 
 
_exptl_crystal_description        prism 
_exptl_crystal_colour             colorless 
_exptl_crystal_size_max           0.54 
_exptl_crystal_size_mid           0.42 
_exptl_crystal_size_min           0.23 
_exptl_crystal_density_meas       ? 
_exptl_crystal_density_diffrn     1.290 
_exptl_crystal_density_method     'not measured' 
_exptl_crystal_F_000              320 
_exptl_absorpt_coefficient_mu     0.072 
_exptl_absorpt_correction_type    multi-scan 
_exptl_absorpt_correction_T_min   0.962 
_exptl_absorpt_correction_T_max   0.984 
_exptl_absorpt_process_details    TWINABS 
 
_exptl_special_details 
; 
 ? 
; 
 
_diffrn_ambient_temperature       90(2) 
_diffrn_radiation_wavelength      0.71073 
_diffrn_radiation_type            MoK\a 
_diffrn_radiation_source          'fine-focus sealed tube' 
_diffrn_radiation_monochromator   graphite 
_diffrn_measurement_device_type   'Bruker SMART 1000' 
_diffrn_measurement_method        \w
_diffrn_detector_area_resol_mean  8.3 
_diffrn_reflns_number             3504 
_diffrn_reflns_av_R_equivalents   0.0233 
_diffrn_reflns_av_sigmaI/netI     0.0218 
_diffrn_reflns_limit_h_min        -10 
_diffrn_reflns_limit_h_max        9 
_diffrn_reflns_limit_k_min        -9 
_diffrn_reflns_limit_k_max        10 
_diffrn_reflns_limit_l_min        -16 
_diffrn_reflns_limit_l_max        16 
_diffrn_reflns_theta_min          2.82 
_diffrn_reflns_theta_max          28.91 
_reflns_number_total              3504 
_reflns_number_gt                 2962 
_reflns_threshold_expression      I>2\s(I) 
 
_computing_data_collection        'SMART (Bruker, 2005)' 
_computing_cell_refinement        'SAINT (Bruker, 2012)' 
_computing_data_reduction         'SAINT (Bruker, 2012)' 
_computing_structure_solution     'SHELXS-97 (Sheldrick, 2008)' 
_computing_structure_refinement   'SHELXL-97 (Sheldrick, 2008)' 
_computing_molecular_graphics     ? 
_computing_publication_material   'SHELXL-97 (Sheldrick, 2008)'
 
_refine_special_details 
; 
 Refinement of F^2^ against ALL reflections.  The weighted R-factor wR and 
 goodness of fit S are based on F^2^, conventional R-factors R are based 
 on F, with F set to zero for negative F^2^. The threshold expression of 
 F^2^ > 2sigma(F^2^) is used only for calculating R-factors(gt) etc. and is 
 not relevant to the choice of reflections for refinement.  R-factors based 
 on F^2^ are statistically about twice as large as those based on F, and R- 
 factors based on ALL data will be even larger. 
 The crystal is a pseudomerohedral twin, rotated about c* by 180 \%.
 The twin parameter refined to 0.418(2). Because both components were used
 in the refinement, the number of reflections for estimations of the su's
 was reduced by setting nextra to 1750.
; 
 
_refine_ls_structure_factor_coef  Fsqd  
_refine_ls_matrix_type            full 
_refine_ls_weighting_scheme       calc  
_refine_ls_weighting_details 
 'calc w=1/[\s^2^(Fo^2^)+(0.0714P)^2^+0.2177P] where P=(Fo^2^+2Fc^2^)/3' 
_atom_sites_solution_primary      direct 
_atom_sites_solution_secondary    difmap 
_atom_sites_solution_hydrogens    geom 
_refine_ls_hydrogen_treatment     refall 
_refine_ls_extinction_method      none 
_refine_ls_extinction_coef        ? 
_refine_ls_number_reflns          3504 
_refine_ls_number_parameters      157 
_refine_ls_number_restraints      0 
_refine_ls_R_factor_all           0.0508 
_refine_ls_R_factor_gt            0.0432 
_refine_ls_wR_factor_ref          0.1476 
_refine_ls_wR_factor_gt           0.1416 
_refine_ls_goodness_of_fit_ref    1.095 
_refine_ls_restrained_S_all       1.095 
_refine_ls_shift/su_max           0.000 
_refine_ls_shift/su_mean          0.000 
 
loop_ 
 _atom_site_label 
 _atom_site_type_symbol 
 _atom_site_fract_x 
 _atom_site_fract_y 
 _atom_site_fract_z 
 _atom_site_U_iso_or_equiv 
 _atom_site_adp_type 
 _atom_site_occupancy 
 _atom_site_symmetry_multiplicity 
 _atom_site_calc_flag 
 _atom_site_refinement_flags 
 _atom_site_disorder_assembly 
 _atom_site_disorder_group 
C1 C 0.5403(2) 0.6430(2) 0.25476(12) 0.0247(4) Uani 1 1 d . . . 
H1A H 0.425(3) 0.641(2) 0.1986(16) 0.028(5) Uiso 1 1 d . . . 
H1B H 0.642(3) 0.640(2) 0.2164(16) 0.036(5) Uiso 1 1 d . . . 
C2 C 0.7350(2) 0.80787(19) 0.40777(14) 0.0227(4) Uani 1 1 d . . . 
H2A H 0.841(3) 0.808(2) 0.3728(16) 0.030(5) Uiso 1 1 d . . . 
H2B H 0.748(2) 0.916(2) 0.4534(15) 0.029(5) Uiso 1 1 d . . . 
C3 C 0.5532(2) 0.8049(2) 0.32134(13) 0.0239(4) Uani 1 1 d . . . 
H3 H 0.545(3) 0.908(2) 0.2724(16) 0.034(5) Uiso 1 1 d . . . 
C4 C 0.3980(2) 0.80883(19) 0.37699(14) 0.0217(4) Uani 1 1 d . . . 
H4A H 0.404(2) 0.916(2) 0.4175(15) 0.029(5) Uiso 1 1 d . . . 
H4B H 0.279(3) 0.808(2) 0.3215(16) 0.026(5) Uiso 1 1 d . . . 
C5 C 0.2545(2) 0.66088(18) 0.50854(12) 0.0180(3) Uani 1 1 d . . . 
H5A H 0.136(3) 0.661(2) 0.4526(16) 0.028(5) Uiso 1 1 d . . . 
H5B H 0.260(2) 0.769(2) 0.5505(15) 0.025(4) Uiso 1 1 d . . . 
C6 C 0.5526(2) 0.49039(18) 0.32942(12) 0.0180(4) Uani 1 1 d . . . 
H6 H 0.541(2) 0.380(2) 0.2847(16) 0.029(5) Uiso 1 1 d . . . 
C7 C 0.39808(19) 0.49410(17) 0.38623(11) 0.0154(3) Uani 1 1 d . . . 
H7 H 0.277(2) 0.492(2) 0.3307(15) 0.018(4) Uiso 1 1 d . . . 
C8 C 0.26564(19) 0.50866(17) 0.58313(12) 0.0165(3) Uani 1 1 d . . . 
H8 H 0.161(3) 0.514(2) 0.6193(16) 0.027(5) Uiso 1 1 d . . . 
C9 C 0.7477(2) 0.65518(17) 0.48239(12) 0.0170(3) Uani 1 1 d . . . 
H9 H 0.866(2) 0.657(2) 0.5398(14) 0.020(4) Uiso 1 1 d . . . 
C10 C 0.40875(18) 0.65789(16) 0.45249(11) 0.0144(3) Uani 1 1 d . . . 
C11 C 0.59269(18) 0.65800(16) 0.53888(11) 0.0148(3) Uani 1 1 d . . . 
H11 H 0.601(2) 0.767(2) 0.5839(15) 0.027(5) Uiso 1 1 d . . . 
 
loop_ 
 _atom_site_aniso_label 
 _atom_site_aniso_U_11 
 _atom_site_aniso_U_22 
 _atom_site_aniso_U_33 
 _atom_site_aniso_U_23 
 _atom_site_aniso_U_13 
 _atom_site_aniso_U_12 
C1 0.0243(9) 0.0344(8) 0.0162(8) 0.0072(6) 0.0065(6) 0.0024(6) 
C2 0.0201(8) 0.0206(7) 0.0297(9) 0.0046(6) 0.0104(6) -0.0008(6) 
C3 0.0237(9) 0.0240(8) 0.0257(9) 0.0109(6) 0.0097(6) 0.0033(6) 
C4 0.0190(8) 0.0207(7) 0.0257(8) 0.0071(6) 0.0064(6) 0.0044(5) 
C5 0.0150(8) 0.0191(7) 0.0205(8) 0.0012(5) 0.0057(5) 0.0035(5) 
C6 0.0183(8) 0.0227(7) 0.0138(7) -0.0008(5) 0.0054(6) 0.0006(5) 
C7 0.0136(7) 0.0192(7) 0.0122(7) 0.0004(5) 0.0013(5) 0.0002(5) 
C8 0.0146(8) 0.0191(7) 0.0171(7) 0.0010(5) 0.0064(6) 0.0018(5) 
C9 0.0136(8) 0.0186(7) 0.0186(7) 0.0011(5) 0.0040(5) -0.0009(5) 
C10 0.0133(7) 0.0151(7) 0.0148(7) 0.0012(5) 0.0037(5) 0.0017(5) 
C11 0.0141(7) 0.0149(7) 0.0154(7) -0.0023(5) 0.0039(5) -0.0007(5) 
 
_geom_special_details 
; 
 All esds (except the esd in the dihedral angle between two l.s. planes) 
 are estimated using the full covariance matrix.  The cell esds are taken 
 into account individually in the estimation of esds in distances, angles 
 and torsion angles; correlations between esds in cell parameters are only 
 used when they are defined by crystal symmetry.  An approximate (isotropic) 
 treatment of cell esds is used for estimating esds involving l.s. planes. 
; 
 
loop_ 
 _geom_bond_atom_site_label_1 
 _geom_bond_atom_site_label_2 
 _geom_bond_distance 
 _geom_bond_site_symmetry_2 
 _geom_bond_publ_flag 
C1 C6 1.534(2) . ? 
C1 C3 1.534(2) . ? 
C1 H1A 0.983(19) . ? 
C1 H1B 1.02(2) . ? 
C2 C9 1.5337(19) . ? 
C2 C3 1.536(2) . ? 
C2 H2A 1.02(2) . ? 
C2 H2B 1.028(19) . ? 
C3 C4 1.534(2) . ? 
C3 H3 1.03(2) . ? 
C4 C10 1.5312(19) . ? 
C4 H4A 0.99(2) . ? 
C4 H4B 0.999(19) . ? 
C5 C10 1.531(2) . ? 
C5 C8 1.5316(19) . ? 
C5 H5A 1.00(2) . ? 
C5 H5B 1.007(19) . ? 
C6 C7 1.540(2) . ? 
C6 C8 1.542(2) 3_666 ? 
C6 H6 1.039(19) . ? 
C7 C11 1.5349(18) 3_666 ? 
C7 C10 1.5463(18) . ? 
C7 H7 1.013(18) . ? 
C8 C9 1.5400(19) 3_666 ? 
C8 C6 1.542(2) 3_666 ? 
C8 H8 1.024(19) . ? 
C9 C8 1.5400(19) 3_666 ? 
C9 C11 1.540(2) . ? 
C9 H9 1.004(18) . ? 
C10 C11 1.5474(19) . ? 
C11 C7 1.5350(18) 3_666 ? 
C11 H11 1.033(19) . ? 
 
loop_ 
 _geom_angle_atom_site_label_1 
 _geom_angle_atom_site_label_2 
 _geom_angle_atom_site_label_3 
 _geom_angle 
 _geom_angle_site_symmetry_1 
 _geom_angle_site_symmetry_3 
 _geom_angle_publ_flag 
C6 C1 C3 109.56(12) . . ? 
C6 C1 H1A 109.9(11) . . ? 
C3 C1 H1A 109.7(11) . . ? 
C6 C1 H1B 110.5(11) . . ? 
C3 C1 H1B 109.7(11) . . ? 
H1A C1 H1B 107.4(16) . . ? 
C9 C2 C3 109.62(12) . . ? 
C9 C2 H2A 110.1(11) . . ? 
C3 C2 H2A 110.9(11) . . ? 
C9 C2 H2B 109.1(10) . . ? 
C3 C2 H2B 111.0(10) . . ? 
H2A C2 H2B 106.2(15) . . ? 
C4 C3 C1 109.23(13) . . ? 
C4 C3 C2 109.23(14) . . ? 
C1 C3 C2 109.19(12) . . ? 
C4 C3 H3 109.8(11) . . ? 
C1 C3 H3 110.4(11) . . ? 
C2 C3 H3 109.0(11) . . ? 
C10 C4 C3 110.84(12) . . ? 
C10 C4 H4A 110.9(11) . . ? 
C3 C4 H4A 109.1(11) . . ? 
C10 C4 H4B 109.6(11) . . ? 
C3 C4 H4B 110.0(11) . . ? 
H4A C4 H4B 106.5(14) . . ? 
C10 C5 C8 110.76(11) . . ? 
C10 C5 H5A 109.2(11) . . ? 
C8 C5 H5A 110.1(11) . . ? 
C10 C5 H5B 109.3(10) . . ? 
C8 C5 H5B 110.7(10) . . ? 
H5A C5 H5B 106.7(14) . . ? 
C1 C6 C7 110.40(12) . . ? 
C1 C6 C8 110.28(12) . 3_666 ? 
C7 C6 C8 108.32(12) . 3_666 ? 
C1 C6 H6 110.1(11) . . ? 
C7 C6 H6 108.1(10) . . ? 
C8 C6 H6 109.6(10) 3_666 . ? 
C11 C7 C6 111.29(11) 3_666 . ? 
C11 C7 C10 109.61(11) 3_666 . ? 
C6 C7 C10 109.72(11) . . ? 
C11 C7 H7 108.2(10) 3_666 . ? 
C6 C7 H7 110.1(10) . . ? 
C10 C7 H7 107.8(9) . . ? 
C5 C8 C9 110.23(11) . 3_666 ? 
C5 C8 C6 110.05(12) . 3_666 ? 
C9 C8 C6 108.64(11) 3_666 3_666 ? 
C5 C8 H8 109.1(10) . . ? 
C9 C8 H8 109.2(10) 3_666 . ? 
C6 C8 H8 109.6(11) 3_666 . ? 
C2 C9 C8 110.36(12) . 3_666 ? 
C2 C9 C11 110.40(12) . . ? 
C8 C9 C11 108.52(11) 3_666 . ? 
C2 C9 H9 110.1(10) . . ? 
C8 C9 H9 109.4(10) 3_666 . ? 
C11 C9 H9 108.1(10) . . ? 
C4 C10 C5 111.21(11) . . ? 
C4 C10 C7 109.23(11) . . ? 
C5 C10 C7 109.42(11) . . ? 
C4 C10 C11 109.92(11) . . ? 
C5 C10 C11 109.43(11) . . ? 
C7 C10 C11 107.55(10) . . ? 
C7 C11 C9 111.42(11) 3_666 . ? 
C7 C11 C10 109.40(11) 3_666 . ? 
C9 C11 C10 109.38(12) . . ? 
C7 C11 H11 109.0(10) 3_666 . ? 
C9 C11 H11 109.4(10) . . ? 
C10 C11 H11 108.1(10) . . ? 
 
_diffrn_measured_fraction_theta_max    0.992 
_diffrn_reflns_theta_full              27.50 
_diffrn_measured_fraction_theta_full   0.992 
_refine_diff_density_max    0.350 
_refine_diff_density_min   -0.210 
_refine_diff_density_rms    0.049 
_iucr_refine_instructions_details
;
TITL mn2101 in P2(1)/n TWINABS all components (N = 0) [121]tetramantane
CELL  0.71073   7.6445   7.9632  12.8008   90.000  105.018   90.000
ZERR    2.00   0.0012   0.0012   0.0019   0.000   0.002   0.000
LATT  1
SYMM 1/2-X, 1/2+Y, 1/2-Z
SFAC C H
UNIT 44 56
TEMP -183
omit 0 55
size 0.23 0.42 0.54 ! colorless prism
L.S. 10 0 1750
bond $h
acta
WGHT    0.097500    0.595900
BASF   0.41774
FVAR       1.14183
C1    1    0.540330    0.642999    0.254763    11.00000    0.02428    0.03441 =
         0.01622    0.00722    0.00651    0.00241
H1A   2    0.424939    0.640832    0.198633    11.00000    0.02834
H1B   2    0.642309    0.640235    0.216419    11.00000    0.03597
C2    1    0.735007    0.807872    0.407774    11.00000    0.02007    0.02056 =
         0.02974    0.00458    0.01043   -0.00083
H2A   2    0.841051    0.807899    0.372766    11.00000    0.02980
H2B   2    0.747917    0.915606    0.453375    11.00000    0.02897
C3    1    0.553158    0.804886    0.321336    11.00000    0.02373    0.02404 =
         0.02574    0.01094    0.00969    0.00325
H3    2    0.545418    0.908070    0.272380    11.00000    0.03361
C4    1    0.398045    0.808833    0.376988    11.00000    0.01896    0.02069 =
         0.02566    0.00714    0.00638    0.00440
H4A   2    0.403634    0.915680    0.417459    11.00000    0.02915
H4B   2    0.278965    0.808289    0.321503    11.00000    0.02624
C5    1    0.254454    0.660880    0.508541    11.00000    0.01502    0.01913 =
         0.02053    0.00119    0.00570    0.00355
H5A   2    0.135959    0.661211    0.452559    11.00000    0.02826
H5B   2    0.260299    0.768632    0.550549    11.00000    0.02529
C6    1    0.552611    0.490386    0.329423    11.00000    0.01833    0.02269 =
         0.01379   -0.00077    0.00544    0.00063
H6    2    0.541147    0.380094    0.284729    11.00000    0.02858
C7    1    0.398079    0.494103    0.386232    11.00000    0.01361    0.01918 =
         0.01216    0.00041    0.00128    0.00022
H7    2    0.276525    0.492298    0.330657    11.00000    0.01838
C8    1    0.265637    0.508662    0.583128    11.00000    0.01455    0.01912 =
         0.01715    0.00099    0.00639    0.00175
H8    2    0.160882    0.513660    0.619263    11.00000    0.02704
C9    1    0.747717    0.655175    0.482388    11.00000    0.01362    0.01861 =
         0.01864    0.00113    0.00403   -0.00087
H9    2    0.865580    0.657160    0.539774    11.00000    0.01966
C10   1    0.408749    0.657887    0.452486    11.00000    0.01328    0.01512 =
         0.01478    0.00123    0.00365    0.00166
C11   1    0.592692    0.658003    0.538877    11.00000    0.01412    0.01494 =
         0.01540   -0.00231    0.00394   -0.00073
H11   2    0.600679    0.766711    0.583923    11.00000    0.02671
 
HKLF 5
 
REM  mn2101 in P2(1)/n TWINABS all components (N = 0) [121]tetramantane
REM R1 =  0.0432 for   2962 Fo > 4sig(Fo)  and  0.0508 for all   3504 data
REM    157 parameters refined using      0 restraints
 
END  
     
WGHT      0.0914      0.5828 
REM Highest difference peak  0.350,  deepest hole -0.210,  1-sigma level  0.049
Q1    1   0.4003  0.5758  0.4165  11.00000  0.05    0.35
Q2    1   0.2602  0.5732  0.5427  11.00000  0.05    0.30
Q3    1   0.4087  0.7340  0.4184  11.00000  0.05    0.30
Q4    1   0.3983  0.4196  0.4218  11.00000  0.05    0.29
Q5    1   0.7371  0.5756  0.4473  11.00000  0.05    0.28
Q6    1   0.4979  0.6582  0.5008  11.00000  0.05    0.28
Q7    1   0.5508  0.5721  0.2951  11.00000  0.05    0.28
Q8    1   0.3292  0.6578  0.4797  11.00000  0.05    0.28
Q9    1   0.3572  0.5057  0.6252  11.00000  0.05    0.28
Q10   1   0.6592  0.6571  0.5067  11.00000  0.05    0.27
Q11   1   0.5513  0.7266  0.2933  11.00000  0.05    0.27
Q12   1   0.7376  0.7343  0.4445  11.00000  0.05    0.25
Q13   1   0.4821  0.4905  0.3545  11.00000  0.05    0.24
Q14   1   0.4757  0.8087  0.3442  11.00000  0.05    0.20
Q15   1   0.6399  0.8127  0.3752  11.00000  0.05    0.18
Q16   1   0.8091  0.6521  0.5158  11.00000  0.05    0.14
Q17   1   0.5496  0.4144  0.3020  11.00000  0.05    0.14
Q18   1   0.3478  0.4939  0.3567  11.00000  0.05    0.13
Q19   1   0.5795  0.7367  0.5621  11.00000  0.05    0.13
Q20   1   0.1897  0.4786  0.3219  11.00000  0.05    0.12
;