####################################################################### 
# 
# This file contains crystal structure data downloaded from the 
# Cambridge Structural Database (CSD) hosted by the Cambridge 
# Crystallographic Data Centre (CCDC).
# 
# Full information about CCDC data access policies and citation 
# guidelines are available at http://www.ccdc.cam.ac.uk/access/V1 
# 
# Audit and citation data items may have been added by the CCDC. 
# Please retain this information to preserve the provenance of 
# this file and to allow appropriate attribution of the data. 
# 
#######################################################################

data_exp_124
_audit_block_doi                 10.5517/cc10lgrt
_database_code_depnum_ccdc_archive 'CCDC 941276'
loop_
_citation_id
_citation_doi
_citation_year
1 10.1016/j.jcrysgro.2015.06.008 2015
2 10.1016/j.tetlet.2014.12.006 2015
_audit_update_record             
;
2013-05-27 deposited with the CCDC.
2017-08-25 downloaded from the CCDC.
;
_audit_creation_date             2013-05-19
_audit_creation_method           
;
_publ_contact_author_address      ?
_publ_contact_author_email        ?
_publ_contact_author_name         ''
_publ_contact_author_phone        ?
_chemical_name_common             ?
_chemical_name_systematic
;
_chemical_name_systematic        
heptacyclo[7.7.1.1(3,15).0(1,12).0(2,7).0(4,13).0(6,11)]octadecane
_chemical_formula_moiety         'C18 H24'
_chemical_formula_sum            'C18 H24'
_chemical_formula_weight         240.37
loop_
_atom_type_symbol
_atom_type_description
_atom_type_scat_dispersion_real
_atom_type_scat_dispersion_imag
_atom_type_scat_source
C C 0.0033 0.0016 'International Tables Vol C Tables 4.2.6.8 and 6.1.1.4'
H H 0.0000 0.0000 'International Tables Vol C Tables 4.2.6.8 and 6.1.1.4'

_space_group_crystal_system      orthorhombic
_space_group_IT_number           70
_space_group_name_H-M_alt        'F d d d'
_space_group_name_Hall           '-F 2uv 2vw'
loop_
_space_group_symop_id
_space_group_symop_operation_xyz
1 'x, y, z'
2 '-x+1/4, -y+1/4, z'
3 'x, -y+1/4, -z+1/4'
4 '-x+1/4, y, -z+1/4'
5 'x, y+1/2, z+1/2'
6 '-x+1/4, -y+3/4, z+1/2'
7 'x, -y+3/4, -z+3/4'
8 '-x+1/4, y+1/2, -z+3/4'
9 'x+1/2, y, z+1/2'
10 '-x+3/4, -y+1/4, z+1/2'
11 'x+1/2, -y+1/4, -z+3/4'
12 '-x+3/4, y, -z+3/4'
13 'x+1/2, y+1/2, z'
14 '-x+3/4, -y+3/4, z'
15 'x+1/2, -y+3/4, -z+1/4'
16 '-x+3/4, y+1/2, -z+1/4'
17 '-x, -y, -z'
18 'x-1/4, y-1/4, -z'
19 '-x, y-1/4, z-1/4'
20 'x-1/4, -y, z-1/4'
21 '-x, -y+1/2, -z+1/2'
22 'x-1/4, y+1/4, -z+1/2'
23 '-x, y+1/4, z+1/4'
24 'x-1/4, -y+1/2, z+1/4'
25 '-x+1/2, -y, -z+1/2'
26 'x+1/4, y-1/4, -z+1/2'
27 '-x+1/2, y-1/4, z+1/4'
28 'x+1/4, -y, z+1/4'
29 '-x+1/2, -y+1/2, -z'
30 'x+1/4, y+1/4, -z'
31 '-x+1/2, y+1/4, z-1/4'
32 'x+1/4, -y+1/2, z-1/4'

_cell_length_a                   12.8717(8)
_cell_length_b                   18.0852(11)
_cell_length_c                   21.9834(17)
_cell_angle_alpha                90.00
_cell_angle_beta                 90.00
_cell_angle_gamma                90.00
_cell_volume                     5117.5(6)
_cell_formula_units_Z            16
_cell_measurement_reflns_used    2057
_cell_measurement_temperature    293(2)
_cell_measurement_theta_max      26.9540
_cell_measurement_theta_min      1.9090
_exptl_absorpt_coefficient_mu    0.069
_exptl_absorpt_correction_T_max  1.00000
_exptl_absorpt_correction_T_min  0.87501
_exptl_absorpt_correction_type   multi-scan
_exptl_absorpt_process_details   
;
CrysAlisPro, Agilent Technologies,
Version 1.171.36.28 (release 01-02-2013 CrysAlis171 .NET)
(compiled Feb  1 2013,16:14:44)
Empirical absorption correction using spherical harmonics,
 implemented in SCALE3 ABSPACK scaling algorithm.
;
_exptl_crystal_density_diffrn    1.248
_exptl_crystal_density_meas      ?
_exptl_crystal_density_method    'not measured'
_exptl_crystal_recrystallization_method CH2Cl2
_chemical_melting_point          221
_exptl_crystal_description       prism
_diffrn_ambient_temperature      293
_exptl_crystal_F_000             2112
_exptl_crystal_preparation       ?
_exptl_crystal_size_max          ?
_exptl_crystal_size_mid          ?
_exptl_crystal_size_min          ?
_exptl_special_details           
;
 ? 
;
_diffrn_reflns_av_R_equivalents  0.0209
_diffrn_reflns_av_unetI/netI     0.0129
_diffrn_reflns_limit_h_max       15
_diffrn_reflns_limit_h_min       -16
_diffrn_reflns_limit_k_max       22
_diffrn_reflns_limit_k_min       -23
_diffrn_reflns_limit_l_max       27
_diffrn_reflns_limit_l_min       -27
_diffrn_reflns_number            9089
_diffrn_reflns_theta_full        27.16
_diffrn_reflns_theta_max         27.16
_diffrn_reflns_theta_min         2.92
_diffrn_detector_area_resol_mean 16.1709
_diffrn_measured_fraction_theta_full 0.9979
_diffrn_measured_fraction_theta_max 0.9804
_diffrn_measurement_details      
;
#__ type_ start__ end____ width___ exp.time_
  1 omega  -76.00  -29.00   1.0000    7.5500
omega____ theta____ kappa____ phi______ frames
    -       17.0123  -38.0000 -150.0000 47

#__ type_ start__ end____ width___ exp.time_
  2 omega   18.00   64.00   1.0000    7.5500
omega____ theta____ kappa____ phi______ frames
    -       17.0123  -38.0000 -150.0000 46

#__ type_ start__ end____ width___ exp.time_
  3 omega  -93.00  -58.00   1.0000    7.5500
omega____ theta____ kappa____ phi______ frames
    -       17.0123  178.0000   90.0000 35

#__ type_ start__ end____ width___ exp.time_
  4 omega  -31.00   32.00   1.0000   30.2100
omega____ theta____ kappa____ phi______ frames
    -      -35.7748  -94.0000 -120.0000 63

#__ type_ start__ end____ width___ exp.time_
  5 omega -116.00  -90.00   1.0000   30.2100
omega____ theta____ kappa____ phi______ frames
    -      -35.7748 -116.0000   11.0000 26

#__ type_ start__ end____ width___ exp.time_
  6 omega -104.00    5.00   1.0000   30.2100
omega____ theta____ kappa____ phi______ frames
    -      -35.7748  -30.0000  150.0000 109

#__ type_ start__ end____ width___ exp.time_
  7 omega  -47.00  -22.00   1.0000   30.2100
omega____ theta____ kappa____ phi______ frames
    -       36.3998  125.0000 -120.0000 25

#__ type_ start__ end____ width___ exp.time_
  8 omega -127.00  -79.00   1.0000    7.5500
omega____ theta____ kappa____ phi______ frames
    -      -16.3873  -99.0000  -90.0000 48

#__ type_ start__ end____ width___ exp.time_
  9 omega  -95.00   76.00   1.0000    7.5500
omega____ theta____ kappa____ phi______ frames
    -       17.0123  -77.0000  150.0000 171

#__ type_ start__ end____ width___ exp.time_
 10 omega  -31.00   33.00   1.0000   30.2100
omega____ theta____ kappa____ phi______ frames
    -      -35.7748  -94.0000   90.0000 64

#__ type_ start__ end____ width___ exp.time_
 11 omega  -27.00  148.00   1.0000   30.2100
omega____ theta____ kappa____ phi______ frames
    -       36.3998   61.0000   60.0000 175

#__ type_ start__ end____ width___ exp.time_
 12 omega   73.00  145.00   1.0000   30.2100
omega____ theta____ kappa____ phi______ frames
    -       36.3998  125.0000  -30.0000 72

#__ type_ start__ end____ width___ exp.time_
 13 omega   73.00  145.00   1.0000   30.2100
omega____ theta____ kappa____ phi______ frames
    -       36.3998  125.0000  150.0000 72

#__ type_ start__ end____ width___ exp.time_
 14 omega -127.00  -79.00   1.0000    7.5500
omega____ theta____ kappa____ phi______ frames
    -      -16.3873  -99.0000  -60.0000 48

#__ type_ start__ end____ width___ exp.time_
 15 omega  -94.00  -32.00   1.0000    7.5500
omega____ theta____ kappa____ phi______ frames
    -       17.0123  178.0000   30.0000 62

#__ type_ start__ end____ width___ exp.time_
 16 omega  -69.00   15.00   1.0000   30.2100
omega____ theta____ kappa____ phi______ frames
    -      -35.7748   30.0000 -180.0000 84
;
_diffrn_measurement_device_type  'Xcalibur, Eos'
_diffrn_measurement_method       '\w scans'
_diffrn_orient_matrix_UB_11      -0.0019051000
_diffrn_orient_matrix_UB_12      -0.0247268000
_diffrn_orient_matrix_UB_13      0.0250390000
_diffrn_orient_matrix_UB_21      0.0078132000
_diffrn_orient_matrix_UB_22      -0.0302581000
_diffrn_orient_matrix_UB_23      -0.0199982000
_diffrn_orient_matrix_UB_31      0.0545145000
_diffrn_orient_matrix_UB_32      0.0034736000
_diffrn_orient_matrix_UB_33      0.0037206000
_diffrn_radiation_monochromator  graphite
_diffrn_radiation_probe          x-ray
_diffrn_radiation_type           'Mo K\a'
_diffrn_radiation_wavelength     0.7107
_diffrn_source                   'Enhance (Mo) X-ray Source'
_diffrn_source_type              'XCalibur Eos'
_diffrn_standards_decay_%        ?
_diffrn_standards_interval_count ?
_diffrn_standards_interval_time  ?
_diffrn_standards_number         ?
_reflns_number_gt                862
_reflns_number_total             1373
_reflns_threshold_expression     >2sigma(I)
_computing_cell_refinement       
;
CrysAlisPro, Agilent Technologies,
Version 1.171.36.28 (release 01-02-2013 CrysAlis171 .NET)
(compiled Feb  1 2013,16:14:44)
;
_computing_data_collection       
;
CrysAlisPro, Agilent Technologies,
Version 1.171.36.28 (release 01-02-2013 CrysAlis171 .NET)
(compiled Feb  1 2013,16:14:44)
;
_computing_data_reduction        
;
CrysAlisPro, Agilent Technologies,
Version 1.171.36.28 (release 01-02-2013 CrysAlis171 .NET)
(compiled Feb  1 2013,16:14:44)
;
_computing_molecular_graphics    
;
O. V. Dolomanov, L. J. Bourhis, R. J. Gildea, J. A. K. Howard and H. Puschmann,
OLEX2: a complete structure solution, refinement and analysis program.
J. Appl. Cryst. (2009). 42, 339-341.
;
_computing_publication_material  
;
O. V. Dolomanov, L. J. Bourhis, R. J. Gildea, J. A. K. Howard and H. Puschmann,
OLEX2: a complete structure solution, refinement and analysis program.
J. Appl. Cryst. (2009). 42, 339-341.
;
_computing_structure_refinement  
;
SHELXL, G.M. Sheldrick, Acta Cryst.
(2008). A64, 112-122
;
_computing_structure_solution    
;
SHELXS, G.M. Sheldrick, Acta Cryst.
(2008). A64, 112-122
;
_refine_diff_density_max         0.577
_refine_diff_density_min         -0.261
_refine_diff_density_rms         0.071
_refine_ls_extinction_coef       ?
_refine_ls_extinction_method     none
_refine_ls_goodness_of_fit_ref   1.037
_refine_ls_hydrogen_treatment    mixed
_refine_ls_matrix_type           full
_refine_ls_number_parameters     131
_refine_ls_number_reflns         1373
_refine_ls_number_restraints     0
_refine_ls_R_factor_all          0.0977
_refine_ls_R_factor_gt           0.0760
_refine_ls_restrained_S_all      1.037
_refine_ls_shift/su_max          0.012
_refine_ls_shift/su_mean         0.002
_refine_ls_structure_factor_coef Fsqd
_refine_ls_weighting_details     
'calc w=1/[\s^2^(Fo^2^)+(0.1514P)^2^+1.8596P] where P=(Fo^2^+2Fc^2^)/3'
_refine_ls_weighting_scheme      calc
_refine_ls_wR_factor_gt          0.2048
_refine_ls_wR_factor_ref         0.2376
_refine_special_details          
;
 Refinement of F^2^ against ALL reflections.  The weighted R-factor wR and 
 goodness of fit S are based on F^2^, conventional R-factors R are based 
 on F, with F set to zero for negative F^2^. The threshold expression of 
 F^2^ > 2sigma(F^2^) is used only for calculating R-factors(gt) etc. and is 
 not relevant to the choice of reflections for refinement.  R-factors based 
 on F^2^ are statistically about twice as large as those based on F, and R- 
 factors based on ALL data will be even larger. 

;
_atom_sites_solution_hydrogens   geom
_atom_sites_solution_primary     direct
_atom_sites_solution_secondary   difmap
loop_
_atom_site_label
_atom_site_type_symbol
_atom_site_fract_x
_atom_site_fract_y
_atom_site_fract_z
_atom_site_U_iso_or_equiv
_atom_site_adp_type
_atom_site_occupancy
_atom_site_symmetry_multiplicity
_atom_site_calc_flag
_atom_site_refinement_flags
_atom_site_disorder_assembly
_atom_site_disorder_group
C1 C 0.1250 0.1250 0.41965(8) 0.0319(6) Uani 1 2 d S . .
C2 C 0.22175(10) 0.12477(7) 0.37809(6) 0.0321(5) Uani 1 1 d . . .
C3 C 0.22253(12) 0.19490(8) 0.33901(7) 0.0398(5) Uani 1 1 d . . .
C4 C 0.22136(12) 0.05467(8) 0.33917(8) 0.0423(5) Uani 1 1 d . . .
C5 C 0.12548(12) 0.19400(8) 0.29808(7) 0.0423(5) Uani 1 1 d . . .
C6 C 0.12640(12) 0.26405(9) 0.41930(8) 0.0504(6) Uani 1 1 d . . .
C7 C 0.12411(14) 0.05531(9) 0.45880(8) 0.0464(6) Uani 1 1 d . . .
C8 C 0.1250 0.1250 0.25842(10) 0.0552(8) Uani 1 2 d S . .
C9 C 0.22310(13) 0.26379(9) 0.37891(9) 0.0480(6) Uani 1 1 d . . .
C10 C 0.02909(14) 0.26422(10) 0.37906(10) 0.0542(6) Uani 1 1 d . . .
H5 H 0.1275(12) 0.2420(12) 0.2737(10) 0.069(6) Uiso 1 1 d . . .
H7A H 0.1875(16) 0.0551(10) 0.4860(9) 0.067(5) Uiso 1 1 d . . .
H3 H 0.2883(14) 0.1953(9) 0.3121(9) 0.057(5) Uiso 1 1 d . . .
H6 H 0.1260(13) 0.3069(13) 0.4470(10) 0.073(6) Uiso 1 1 d . . .
H2 H 0.2866(15) 0.1243(8) 0.4040(9) 0.053(5) Uiso 1 1 d . . .
H9A H 0.2843(15) 0.2649(11) 0.4055(10) 0.066(5) Uiso 1 1 d . . .
H9B H 0.2265(15) 0.3093(14) 0.3546(10) 0.070(6) Uiso 1 1 d . . .
H7B H 0.0591(16) 0.0565(10) 0.4867(9) 0.065(5) Uiso 1 1 d . . .
H10A H -0.0347(15) 0.2680(11) 0.4044(10) 0.068(6) Uiso 1 1 d . . .
H10B H 0.0258(15) 0.3100(14) 0.3553(10) 0.070(6) Uiso 1 1 d . . .
H H 0.1888(17) 0.1244(11) 0.2304(11) 0.085(7) Uiso 1 1 d . . .
H4 H 0.2871(16) 0.0541(11) 0.3133(10) 0.077(6) Uiso 1 1 d . . .

loop_
_atom_site_aniso_label
_atom_site_aniso_U_11
_atom_site_aniso_U_22
_atom_site_aniso_U_33
_atom_site_aniso_U_23
_atom_site_aniso_U_13
_atom_site_aniso_U_12
C1 0.0319(10) 0.0400(12) 0.0238(10) 0.000 0.000 0.0019(7)
C2 0.0248(8) 0.0360(9) 0.0353(9) 0.0038(8) 0.0003(4) 0.0023(5)
C3 0.0411(9) 0.0367(9) 0.0417(10) 0.0028(6) 0.0079(6) -0.0034(5)
C4 0.0405(9) 0.0370(9) 0.0496(10) 0.0001(6) 0.0130(6) 0.0077(6)
C5 0.0590(11) 0.0366(10) 0.0313(9) 0.0087(6) -0.0027(7) -0.0007(7)
C6 0.0570(10) 0.0401(9) 0.0540(11) -0.0183(7) -0.0002(8) 0.0020(7)
C7 0.0516(11) 0.0549(12) 0.0329(9) 0.0131(6) -0.0014(8) -0.0034(8)
C8 0.0857(19) 0.0534(15) 0.0263(11) 0.000 0.000 -0.0061(13)
C9 0.0494(10) 0.0362(9) 0.0584(11) -0.0005(8) -0.0026(8) -0.0093(6)
C10 0.0510(10) 0.0352(9) 0.0765(13) -0.0095(9) -0.0045(9) 0.0144(7)

_geom_special_details            
;
 All esds (except the esd in the dihedral angle between two l.s. planes) 
 are estimated using the full covariance matrix.  The cell esds are taken 
 into account individually in the estimation of esds in distances, angles 
 and torsion angles; correlations between esds in cell parameters are only 
 used when they are defined by crystal symmetry.  An approximate (isotropic) 
 treatment of cell esds is used for estimating esds involving l.s. planes. 
;
loop_
_geom_bond_atom_site_label_1
_geom_bond_atom_site_label_2
_geom_bond_distance
_geom_bond_site_symmetry_2
_geom_bond_publ_flag
C1 C2 1.5446(16) . ?
C1 C2 1.5446(16) 2 ?
C1 C7 1.5262(17) 2 ?
C1 C7 1.5262(17) . ?
C2 C3 1.5318(18) . ?
C2 C4 1.5296(19) . ?
C3 C5 1.540(2) . ?
C3 C9 1.524(2) . ?
C4 C5 1.540(2) 2 ?
C4 C10 1.523(2) 2 ?
C5 C4 1.540(2) 2 ?
C5 C8 1.5222(19) . ?
C6 C7 1.526(2) 2 ?
C6 C9 1.529(2) . ?
C6 C10 1.533(2) . ?
C7 C6 1.526(2) 2 ?
C8 C5 1.5221(19) 2 ?
C10 C4 1.523(2) 2 ?

loop_
_geom_angle_atom_site_label_1
_geom_angle_atom_site_label_2
_geom_angle_atom_site_label_3
_geom_angle
_geom_angle_site_symmetry_1
_geom_angle_site_symmetry_3
_geom_angle_publ_flag
C2 C1 C2 107.46(14) . 2 ?
C7 C1 C2 109.25(8) 2 . ?
C7 C1 C2 109.72(8) . . ?
C7 C1 C2 109.72(8) 2 2 ?
C7 C1 C2 109.25(8) . 2 ?
C7 C1 C7 111.35(16) . 2 ?
C3 C2 C1 109.56(9) . . ?
C4 C2 C1 109.30(9) . . ?
C4 C2 C3 111.88(12) . . ?
C2 C3 C5 108.28(10) . . ?
C9 C3 C2 110.75(13) . . ?
C9 C3 C5 110.43(12) . . ?
C2 C4 C5 108.53(10) . 2 ?
C10 C4 C2 110.85(14) 2 . ?
C10 C4 C5 110.33(13) 2 2 ?
C3 C5 C4 108.29(12) . 2 ?
C8 C5 C3 110.28(11) . . ?
C8 C5 C4 110.22(11) . 2 ?
C7 C6 C9 109.35(13) 2 . ?
C7 C6 C10 109.05(14) 2 . ?
C9 C6 C10 109.27(15) . . ?
C6 C7 C1 110.98(12) 2 . ?
C5 C8 C5 110.12(17) 2 . ?
C3 C9 C6 109.45(12) . . ?
C4 C10 C6 109.49(12) 2 . ?
_symmetry_cell_setting           orthorhombic
_symmetry_space_group_name_h-m   'F d d d'
_symmetry_int_tables_number      70
_chemical_absolute_configuration ?

